(declare-datatypes () ((ControlPlaneRecord (mk-cpr (prefix (_ BitVec 32)) (length Int) (ad Int) (lp Int) (metric Int) (med Int) (rid Int) (bgpInternal Bool) (valid Bool)))))
(declare-const rec1 ControlPlaneRecord)
(declare-const rec2 ControlPlaneRecord)
(declare-const R1_BGP Int)
(declare-const R2_BGP Int)
(assert (= (valid rec1) true))
(assert (= (valid rec2) true))
(check-sat)
(get-model)
